p ocr 75 25 75
1 89
2 77
3 81
4 92
5 80
6 91
7 94
8 96
9 99
10 87
11 84
12 91
13 95
14 90
15 94
16 96
17 100
18 98
19 82
20 77
21 83
22 83
23 80
24 87
25 86
26 86
27 79
28 84
29 78
30 97
31 81
32 100
33 78
34 90
35 76
36 85
37 100
38 87
39 77
40 78
41 86
42 88
43 88
44 85
45 81
46 93
47 76
48 76
49 96
50 85
51 79
52 99
53 88
54 95
55 93
56 93
57 90
58 91
59 92
60 82
61 82
62 95
63 83
64 79
65 97
66 80
67 89
68 97
69 94
70 99
71 98
72 89
73 92
74 84
75 98
